[runlim] version:		1.10
[runlim] time limit:		311040000 seconds
[runlim] real time limit:	600 seconds
[runlim] space limit:		14000 MB
[runlim] argv[0]:		python3
[runlim] argv[1]:		cp.py
[runlim] argv[2]:		TUD200.5
[runlim] start:			Tue Jan 20 18:34:36 2026
[runlim] main pid:		169964
[runlim] sample:		10.0 time, 10.8 real, 551.2 MB
Building CP model...
Solving CP Optimizer...
 ! --------------------------------------------------- CP Optimizer 22.1.1.0 --
 ! Minimization problem - 7636 variables, 614769 constraints
 ! Presolve      : 614971 extractables eliminated
 ! LogVerbosity         = Terse
 ! Initial process time : 5.07s (5.04s extraction + 0.04s propagation)
 !  . Log search space  : 7636.0 (before), 7636.0 (after)
 !  . Memory usage      : 89.9 MB (before), 89.9 MB (after)
 ! Using parallel search with 12 workers.
 ! ----------------------------------------------------------------------------
 !          Best Branches  Non-fixed    W       Branch decision
                        0       7636                 -
 + New bound is 0
                        0       7636    1            -
 + New bound is 1
                      622       6054    4   F     0 != l_408
 + New bound is 2
[runlim] sample:		57.2 time, 20.8 real, 2921.4 MB
 ! ----------------------------------------------------------------------------
 ! Search completed, model has no solution.
 ! Best bound             : 2
 ! ----------------------------------------------------------------------------
 ! Number of branches     : 100604
 ! Number of fails        : 27942
 ! Total memory usage     : 2.1 GB (2.1 GB CP Optimizer + 0.0 GB Concert)
 ! Time spent in solve    : 10.93s (5.90s engine + 5.04s extraction)
 ! Search speed (br. / s) : 17051.5
 ! ----------------------------------------------------------------------------
No valid solution: Infeasible
[runlim] end:			Tue Jan 20 18:34:59 2026
[runlim] status:		ok
[runlim] result:		0
[runlim] children:		176
[runlim] real:			23.85 seconds
[runlim] time:			70.90 seconds
[runlim] space:			4862.2 MB
[runlim] samples:		230
